(set-logic QF_S)
(set-option :strings-exp true)
(set-option :produce-models true)
(declare-fun sigmaStar_0 () String)
(declare-fun literal_7 () String)
(assert (= literal_7 "\x3c\x61\x20\x68\x72\x65\x66\x3d\x5c\x22\x73\x75\x62\x6d\x69\x73\x73\x69\x6f\x6e\x73\x2e\x70\x68\x70\x3f\x69\x64\x3d\x26\x61\x6d\x70\x3b\x61\x63\x74\x69\x6f\x6e\x3d\x61\x64\x6d\x69\x6e\x6c\x69\x73\x74\x5c\x22\x3e\x61\x64\x6d\x69\x6e\x69\x73\x74\x72\x61\x74\x69\x6f\x6e\x3c\x2f\x61\x3e\x5c\x6e"))
(assert (str.in.re literal_7 (re.++ (re.* re.allchar) (re.++ (str.to.re "\x5c\x3c\x53\x43\x52\x49\x50\x54") (re.* re.allchar)))))
(check-sat)
(get-model)
